dates = {'2021-11-08','2021-11-09','2021-11-10','2021-11-11','2021-11-12','2021-11-13','2021-11-14','2021-11-15','2021-11-16','2021-11-17','2021-11-18','2021-11-19'};

daysOfWeek = [Monday,Tuesday,Wednesday,Thursday,Friday,Saturday,Sunday,Monday,Tuesday,Wednesday,Thursday,Friday];

winter = false;

% For this week, how many people will be here.
numPeople = [54,51,51,51,51,51,54,65,62,74,83,93];

% Physical workers need 50 to 100 % more nutrients per day.
numPhysicalWorkers = [29.0,28.0,28.0,28.0,28.0,28.0,28.0,33.0,33.0,37.5,37.5,38.0];

% Males need +25% more nutrients per day.
numMen = [42,41,38,38,38,38,40,47,47,52,60,71];

% Num people who do not eat categories. contains = {none, meat, milk, gluten, egg, nut, seed, sugars}
numRefusals = [| 0,3,0,0,0,0,0,0 | 0,0,0,1,0,0,2,0 | 0,0,0,1,0,0,2,0 | 0,0,0,1,0,0,2,0 | 0,0,0,1,0,0,2,0 | 0,0,0,1,0,0,2,0 | 0,5,0,1,5,0,3,0 | 0,0,0,0,0,0,4,1 | 0,1,0,6,3,3,4,1 | 0,0,0,0,0,0,5,0 | 0,0,4,4,0,0,0,0 | 0,0,3,0,4,2,0,0 |];

